(set-logic QF_UF)
(declare-fun A0 () Bool)
(declare-fun A1 () Bool)
(declare-fun A2 () Bool)
(declare-fun A3 () Bool)
(declare-fun A4 () Bool)
(declare-fun A7 () Bool)
(declare-fun A8 () Bool)
(declare-fun A9 () Bool)
(declare-fun A10 () Bool)
(declare-fun A11 () Bool)
(declare-fun A12 () Bool)
(declare-fun A13 () Bool)
(declare-fun A14 () Bool)
(declare-fun A15 () Bool)
(declare-fun A16 () Bool)
(declare-fun A17 () Bool)
(declare-fun A18 () Bool)
(declare-fun A19 () Bool)
(declare-fun A20 () Bool)
(declare-fun A21 () Bool)
(declare-fun A22 () Bool)
(declare-fun A24 () Bool)
(declare-fun A25 () Bool)
(declare-fun A26 () Bool)
(declare-fun A28 () Bool)
(declare-fun A29 () Bool)
(assert (let ((.def_0 (= A26 A11))) (let ((.def_1 (not A16))) (let ((.def_2 (and .def_1 A3))) (let ((.def_3 (not .def_2))) (let ((.def_4 (and .def_3 .def_0))) (let ((.def_5 (not A4))) (let ((.def_6 (and .def_5 A16))) (let ((.def_7 (not A15))) (let ((.def_8 (not A17))) (let ((.def_9 (or .def_8 .def_7))) (let ((.def_10 (not .def_9))) (let ((.def_11 (or .def_10 .def_6))) (let ((.def_12 (and .def_11 .def_4))) (let ((.def_13 (not .def_12))) (let ((.def_14 (not A2))) (let ((.def_15 (and .def_14 A26))) (let ((.def_16 (not .def_15))) (let ((.def_17 (and A9 .def_8))) (let ((.def_18 (or .def_17 .def_16))) (let ((.def_19 (or A2 A10))) (let ((.def_20 (not A8))) (let ((.def_21 (not A24))) (let ((.def_22 (= .def_21 .def_20))) (let ((.def_23 (or .def_22 .def_19))) (let ((.def_24 (not .def_23))) (let ((.def_25 (or .def_24 .def_18))) (let ((.def_26 (not .def_25))) (let ((.def_27 (and .def_26 .def_13))) (let ((.def_28 (not A10))) (let ((.def_29 (or .def_28 A4))) (let ((.def_30 (not .def_29))) (let ((.def_31 (and A8 A0))) (let ((.def_32 (and .def_31 .def_30))) (let ((.def_33 (or .def_5 A1))) (let ((.def_34 (not .def_33))) (let ((.def_35 (not A9))) (let ((.def_36 (not A21))) (let ((.def_37 (or .def_36 .def_35))) (let ((.def_38 (and .def_37 .def_34))) (let ((.def_39 (or .def_38 .def_32))) (let ((.def_40 (not A18))) (let ((.def_41 (and A14 .def_40))) (let ((.def_42 (not .def_41))) (let ((.def_43 (not A13))) (let ((.def_44 (or A19 .def_43))) (let ((.def_45 (not .def_44))) (let ((.def_46 (or .def_45 .def_42))) (let ((.def_47 (not .def_46))) (let ((.def_48 (not A14))) (let ((.def_49 (or .def_48 .def_43))) (let ((.def_50 (not .def_49))) (let ((.def_51 (not A7))) (let ((.def_52 (or A20 .def_51))) (let ((.def_53 (not .def_52))) (let ((.def_54 (= .def_53 .def_50))) (let ((.def_55 (= .def_54 .def_47))) (let ((.def_56 (not .def_55))) (let ((.def_57 (or .def_56 .def_39))) (let ((.def_58 (or .def_57 .def_27))) (let ((.def_59 (not A22))) (let ((.def_60 (or .def_59 A24))) (let ((.def_61 (not .def_60))) (let ((.def_62 (and A3 A18))) (let ((.def_63 (not .def_62))) (let ((.def_64 (= .def_63 .def_61))) (let ((.def_65 (not A0))) (let ((.def_66 (and .def_65 A22))) (let ((.def_67 (= A22 A11))) (let ((.def_68 (not .def_67))) (let ((.def_69 (and .def_68 .def_66))) (let ((.def_70 (not .def_69))) (let ((.def_71 (or .def_70 .def_64))) (let ((.def_72 (not A1))) (let ((.def_73 (and .def_72 A11))) (let ((.def_74 (not .def_73))) (let ((.def_75 (or .def_36 A15))) (let ((.def_76 (and .def_75 .def_74))) (let ((.def_77 (or A12 .def_43))) (let ((.def_78 (or .def_21 .def_28))) (let ((.def_79 (and .def_78 .def_77))) (let ((.def_80 (not .def_79))) (let ((.def_81 (and .def_80 .def_76))) (let ((.def_82 (and .def_81 .def_71))) (let ((.def_83 (not A20))) (let ((.def_84 (and .def_83 A13))) (let ((.def_85 (not A29))) (let ((.def_86 (and .def_85 A7))) (let ((.def_87 (not .def_86))) (let ((.def_88 (and .def_87 .def_84))) (let ((.def_89 (not .def_88))) (let ((.def_90 (or A29 A28))) (let ((.def_91 (and A26 A10))) (let ((.def_92 (and .def_91 .def_90))) (let ((.def_93 (and .def_92 .def_89))) (let ((.def_94 (not A25))) (let ((.def_95 (and .def_94 A19))) (let ((.def_96 (not .def_95))) (let ((.def_97 (or A3 A24))) (let ((.def_98 (not .def_97))) (let ((.def_99 (and .def_98 .def_96))) (let ((.def_100 (not .def_99))) (let ((.def_101 (not A3))) (let ((.def_102 (and A14 .def_101))) (let ((.def_103 (= .def_83 A0))) (let ((.def_104 (and .def_103 .def_102))) (let ((.def_105 (not .def_104))) (let ((.def_106 (and .def_105 .def_100))) (let ((.def_107 (= .def_106 .def_93))) (let ((.def_108 (or .def_107 .def_82))) (let ((.def_109 (not .def_108))) (let ((.def_110 (= .def_109 .def_58))) (let ((.def_111 (not .def_110))) .def_111)))))))))))))))))))))))))))))))))))))))))))))))))))))))))))))))))))))))))))))))))))))))))))))))))))))))))))))))))
(check-sat)
